(set-info :Origin "This instance was generated by: BanditFuzz-- an RL fuzzer for SMT solvers" )
(set-info :Author "Joe Scott, Fed Mora, Vijay Ganesh" )
(set-info :Contact "Joe Scott, joseph.scott@uwaterloo.ca")
(set-logic QF_BV)
(declare-const bool_0 Bool)
(declare-const bool_1 Bool)
(declare-const bool_2 Bool)
(declare-const bool_3 Bool)
(declare-const bool_4 Bool)
(declare-const bv_0 (_ BitVec 32))
(declare-const bv_1 (_ BitVec 32))
(declare-const bv_2 (_ BitVec 32))
(declare-const bv_3 (_ BitVec 32))
(declare-const bv_4 (_ BitVec 32))
(assert (bvuge (bvnor (bvsmod bv_2 bv_4) (bvadd #x10f1d425  #xfc238d40 )) (bvnor (bvsdiv #xa83aef04  bv_2) (bvshl bv_0 bv_3))))
(assert (=> (bvule (bvor #x7a4089cc  #x5fdf1fb5 ) (bvudiv bv_1 bv_0)) (bvult (bvxnor bv_1 bv_3) (bvashr #xb3c0ffb4  bv_4))))
(assert (bvugt (bvsrem (bvlshr #xcc7b1fa7  #xc8f0cc25 ) (bvsmod bv_3 #x415ef609 )) (bvsmod (bvurem #x99aabb4d  #xe49759b2 ) (bvnor #xd4ff9acf  bv_1))))
(assert (bvult (bvsrem (bvnand bv_2 #x2590fc3f ) (bvand bv_0 bv_0)) (bvshl (bvshl #xe40be7a0  bv_1) (bvudiv bv_3 #x9f1bbc29 ))))
(assert (and (bvule (bvshl #x06d39ce5  bv_0) (bvurem bv_4 #x37ce2d05 )) (bvsle (bvshl #x5b80fa52  #x18cf4466 ) (bvor bv_1 bv_3))))
(check-sat)
(exit)
